WARNING: for repeatability, setting FPU to use double precision
============================[ Problem Statistics ]=============================
|                                                                             |
|  Number of variables:            50                                         |
|  Number of clauses:             218                                         |
|  Parse time:                   0.00 s                                       |
|                                                                             |
============================[ Search Statistics ]==============================
| Conflicts |          ORIGINAL         |          LEARNT          | Progress |
|           |    Vars  Clauses Literals |    Limit  Clauses Lit/Cl |          |
===============================================================================
===============================================================================
restarts              : 1
conflicts             : 72             (328767 /sec)
decisions             : 80             (0.00 % random) (365297 /sec)
propagations          : 1057           (4826484 /sec)
conflict literals     : 272            (20.70 % deleted)
Memory used           : 20.00 MB
CPU time              : 0.000219 s

UNSATISFIABLE
